c Generated map
c Size: 12 * 12, weights in range: 1 to 10, walls: True, with ratio 0.05
c dim 4 of 5
c
p sp 144 242
c graph contains 144 nodes and 242 arcs
c
a 1 13 4
a 13 1 4
a 1 2 7
a 2 1 7
a 2 3 7
a 3 2 7
a 3 15 1
a 15 3 1
a 3 4 8
a 4 3 8
a 4 16 7
a 16 4 7
a 4 5 7
a 5 4 7
a 5 17 5
a 17 5 5
a 5 6 2
a 6 5 2
a 6 18 8
a 18 6 8
a 6 7 5
a 7 6 5
a 7 19 9
a 19 7 9
a 7 8 8
a 8 7 8
a 8 20 3
a 20 8 3
a 8 9 7
a 9 8 7
a 9 21 9
a 21 9 9
a 9 10 5
a 10 9 5
a 10 22 9
a 22 10 9
a 10 11 3
a 11 10 3
a 11 23 8
a 23 11 8
a 11 12 7
a 12 11 7
a 12 24 4
a 24 12 4
a 13 25 9
a 25 13 9
a 15 27 6
a 27 15 6
a 15 16 3
a 16 15 3
a 16 28 3
a 28 16 3
a 16 17 7
a 17 16 7
a 17 29 3
a 29 17 3
a 17 18 5
a 18 17 5
a 18 30 3
a 30 18 3
a 18 19 1
a 19 18 1
a 19 31 7
a 31 19 7
a 19 20 7
a 20 19 7
a 20 32 4
a 32 20 4
a 20 21 3
a 21 20 3
a 21 33 6
a 33 21 6
a 21 22 6
a 22 21 6
a 22 34 5
a 34 22 5
a 22 23 10
a 23 22 10
a 23 35 6
a 35 23 6
a 23 24 7
a 24 23 7
a 24 36 10
a 36 24 10
a 25 37 10
a 37 25 10
a 25 26 5
a 26 25 5
a 26 38 5
a 38 26 5
a 26 27 7
a 27 26 7
a 27 39 8
a 39 27 8
a 27 28 6
a 28 27 6
a 28 40 5
a 40 28 5
a 28 29 5
a 29 28 5
a 29 41 4
a 41 29 4
a 29 30 6
a 30 29 6
a 30 42 9
a 42 30 9
a 30 31 3
a 31 30 3
a 31 43 10
a 43 31 10
a 31 32 1
a 32 31 1
a 32 44 10
a 44 32 10
a 32 33 6
a 33 32 6
a 33 45 10
a 45 33 10
a 33 34 1
a 34 33 1
a 34 46 9
a 46 34 9
a 34 35 1
a 35 34 1
a 35 47 8
a 47 35 8
a 35 36 4
a 36 35 4
a 36 48 10
a 48 36 10
a 37 49 2
a 49 37 2
a 37 38 2
a 38 37 2
a 38 50 4
a 50 38 4
a 38 39 8
a 39 38 8
a 39 51 5
a 51 39 5
a 39 40 9
a 40 39 9
a 40 52 3
a 52 40 3
a 40 41 9
a 41 40 9
a 41 53 8
a 53 41 8
a 41 42 10
a 42 41 10
a 42 54 8
a 54 42 8
a 42 43 1
a 43 42 1
a 43 55 3
a 55 43 3
a 43 44 1
a 44 43 1
a 44 56 7
a 56 44 7
a 44 45 4
a 45 44 4
a 45 57 1
a 57 45 1
a 45 46 3
a 46 45 3
a 46 58 9
a 58 46 9
a 46 47 1
a 47 46 1
a 47 59 7
a 59 47 7
a 47 48 1
a 48 47 1
a 48 60 5
a 60 48 5
a 49 61 7
a 61 49 7
a 49 50 7
a 50 49 7
a 50 62 4
a 62 50 4
a 50 51 7
a 51 50 7
a 51 63 9
a 63 51 9
a 51 52 6
a 52 51 6
a 52 64 8
a 64 52 8
a 52 53 4
a 53 52 4
a 53 65 5
a 65 53 5
a 53 54 3
a 54 53 3
a 54 66 10
a 66 54 10
a 54 55 10
a 55 54 10
a 55 67 7
a 67 55 7
a 55 56 10
a 56 55 10
a 56 68 5
a 68 56 5
a 56 57 1
a 57 56 1
a 57 69 4
a 69 57 4
a 57 58 10
a 58 57 10
a 58 70 2
a 70 58 2
a 58 59 7
a 59 58 7
a 59 71 5
a 71 59 5
a 59 60 6
a 60 59 6
a 61 73 1
a 73 61 1
a 61 62 4
a 62 61 4
a 62 74 9
a 74 62 9
a 62 63 2
a 63 62 2
a 63 75 1
a 75 63 1
a 63 64 5
a 64 63 5
a 64 76 10
a 76 64 10
a 64 65 1
a 65 64 1
a 65 77 8
a 77 65 8
a 65 66 9
a 66 65 9
a 66 78 5
a 78 66 5
a 66 67 10
a 67 66 10
a 67 79 9
a 79 67 9
a 67 68 9
a 68 67 9
a 68 80 1
a 80 68 1
a 68 69 1
a 69 68 1
a 69 81 4
a 81 69 4
a 69 70 2
a 70 69 2
a 70 82 1
a 82 70 1
a 70 71 3
a 71 70 3
a 71 83 4
a 83 71 4
a 73 85 2
a 85 73 2
a 73 74 2
a 74 73 2
a 74 86 2
a 86 74 2
a 74 75 3
a 75 74 3
a 75 87 2
a 87 75 2
a 75 76 8
a 76 75 8
a 76 88 7
a 88 76 7
a 76 77 6
a 77 76 6
a 77 89 9
a 89 77 9
a 77 78 2
a 78 77 2
a 78 90 6
a 90 78 6
a 78 79 7
a 79 78 7
a 79 91 7
a 91 79 7
a 79 80 9
a 80 79 9
a 80 92 5
a 92 80 5
a 80 81 1
a 81 80 1
a 81 93 9
a 93 81 9
a 81 82 8
a 82 81 8
a 82 83 7
a 83 82 7
a 83 95 7
a 95 83 7
a 85 86 3
a 86 85 3
a 86 98 9
a 98 86 9
a 86 87 5
a 87 86 5
a 87 99 8
a 99 87 8
a 87 88 4
a 88 87 4
a 88 100 1
a 100 88 1
a 88 89 7
a 89 88 7
a 89 101 6
a 101 89 6
a 89 90 8
a 90 89 8
a 90 102 10
a 102 90 10
a 90 91 9
a 91 90 9
a 91 103 1
a 103 91 1
a 91 92 8
a 92 91 8
a 92 104 9
a 104 92 9
a 92 93 1
a 93 92 1
a 93 105 8
a 105 93 8
a 95 107 3
a 107 95 3
a 95 96 9
a 96 95 9
a 96 108 7
a 108 96 7
a 98 110 4
a 110 98 4
a 98 99 10
a 99 98 10
a 99 111 9
a 111 99 9
a 99 100 4
a 100 99 4
a 100 112 7
a 112 100 7
a 100 101 1
a 101 100 1
a 101 113 2
a 113 101 2
a 101 102 8
a 102 101 8
a 102 114 2
a 114 102 2
a 102 103 5
a 103 102 5
a 103 115 9
a 115 103 9
a 103 104 8
a 104 103 8
a 104 116 1
a 116 104 1
a 104 105 7
a 105 104 7
a 105 117 8
a 117 105 8
a 105 106 5
a 106 105 5
a 106 118 4
a 118 106 4
a 106 107 5
a 107 106 5
a 107 119 5
a 119 107 5
a 107 108 6
a 108 107 6
a 108 120 1
a 120 108 1
a 109 121 3
a 121 109 3
a 109 110 1
a 110 109 1
a 110 122 10
a 122 110 10
a 110 111 7
a 111 110 7
a 111 123 4
a 123 111 4
a 111 112 8
a 112 111 8
a 112 124 9
a 124 112 9
a 112 113 8
a 113 112 8
a 113 125 3
a 125 113 3
a 113 114 3
a 114 113 3
a 114 126 2
a 126 114 2
a 114 115 9
a 115 114 9
a 115 127 9
a 127 115 9
a 115 116 7
a 116 115 7
a 116 128 4
a 128 116 4
a 116 117 5
a 117 116 5
a 117 129 7
a 129 117 7
a 117 118 1
a 118 117 1
a 118 130 7
a 130 118 7
a 118 119 2
a 119 118 2
a 119 131 10
a 131 119 10
a 119 120 7
a 120 119 7
a 120 132 4
a 132 120 4
a 121 133 6
a 133 121 6
a 121 122 7
a 122 121 7
a 122 134 9
a 134 122 9
a 122 123 5
a 123 122 5
a 123 135 5
a 135 123 5
a 123 124 2
a 124 123 2
a 124 136 1
a 136 124 1
a 124 125 7
a 125 124 7
a 125 126 9
a 126 125 9
a 126 138 6
a 138 126 6
a 126 127 1
a 127 126 1
a 127 139 1
a 139 127 1
a 127 128 8
a 128 127 8
a 128 140 6
a 140 128 6
a 128 129 1
a 129 128 1
a 129 141 1
a 141 129 1
a 129 130 7
a 130 129 7
a 130 131 5
a 131 130 5
a 131 143 7
a 143 131 7
a 131 132 7
a 132 131 7
a 132 144 10
a 144 132 10
a 133 134 1
a 134 133 1
a 134 135 2
a 135 134 2
a 135 136 2
a 136 135 2
a 138 139 2
a 139 138 2
a 139 140 6
a 140 139 6
a 140 141 3
a 141 140 3
a 143 144 2
a 144 143 2
